(set-logic QF_BV)
(set-info :source |Converted by Dunbo Cai. dunbocai@gmail.com|)
(set-info :smt-lib-version 2.0)
(set-info :category "convex body with variables with domain [-15, 15]")
(declare-fun x_0 () (_ BitVec 32))
(declare-fun x_1 () (_ BitVec 32))
(declare-fun x_2 () (_ BitVec 32))
(declare-fun x_3 () (_ BitVec 32))
(declare-fun x_4 () (_ BitVec 32))
(assert (bvsge x_0 (bvsub (_ bv0 32) (_ bv15 32))) )
(assert (bvsle x_0 (_ bv15 32)) )
(assert (bvsge x_1 (bvsub (_ bv0 32) (_ bv15 32))) )
(assert (bvsle x_1 (_ bv15 32)) )
(assert (bvsge x_2 (bvsub (_ bv0 32) (_ bv15 32))) )
(assert (bvsle x_2 (_ bv15 32)) )
(assert (bvsge x_3 (bvsub (_ bv0 32) (_ bv15 32))) )
(assert (bvsle x_3 (_ bv15 32)) )
(assert (bvsge x_4 (bvsub (_ bv0 32) (_ bv15 32))) )
(assert (bvsle x_4 (_ bv15 32)) )
(assert (bvsle (bvadd (bvmul (bvsub (_ bv0 32) (bvsdiv (_ bv21 32) (_ bv1 32) )) x_0 )(bvmul (bvsub (_ bv0 32) (bvsdiv (_ bv8 32) (_ bv1 32) )) x_1 )(bvmul (bvsub (_ bv0 32) (bvsdiv (_ bv16 32) (_ bv1 32) )) x_4 )) (bvmul (bvsdiv (_ bv525 32) (_ bv1 32) ) (_ bv1 32) ) )) 
(assert (bvsle (bvadd (bvmul (bvsdiv (_ bv8 32) (_ bv1 32) ) x_2 )(bvmul (bvsub (_ bv0 32) (bvsdiv (_ bv15 32) (_ bv1 32) )) x_3 )(bvmul (bvsub (_ bv0 32) (bvsdiv (_ bv10 32) (_ bv1 32) )) x_4 )) (bvmul (bvsdiv (_ bv141 32) (_ bv1 32) ) (_ bv1 32) ) )) 
(assert (bvsle (bvadd (bvmul (bvsdiv (_ bv63 32) (_ bv1 32) ) x_0 )(bvmul (bvsub (_ bv0 32) (bvsdiv (_ bv30 32) (_ bv1 32) )) x_3 )(bvmul (bvsdiv (_ bv70 32) (_ bv1 32) ) x_4 )) (bvmul (bvsub (_ bv0 32) (bvsdiv (_ bv557 32) (_ bv1 32) )) (_ bv1 32) ) )) 
(assert (bvsle (bvadd (bvmul (bvsub (_ bv0 32) (bvsdiv (_ bv6 32) (_ bv1 32) )) x_0 )(bvmul (bvsdiv (_ bv25 32) (_ bv1 32) ) x_2 )) (bvmul (bvsdiv (_ bv119 32) (_ bv1 32) ) (_ bv1 32) ) )) 
(assert (bvsle (bvadd (bvmul (bvsdiv (_ bv35 32) (_ bv1 32) ) x_0 )(bvmul (bvsdiv (_ bv20 32) (_ bv1 32) ) x_1 )(bvmul (bvsub (_ bv0 32) (bvsdiv (_ bv135 32) (_ bv1 32) )) x_2 )(bvmul (bvsub (_ bv0 32) (bvsdiv (_ bv9 32) (_ bv1 32) )) x_3 )) (bvmul (bvsdiv (_ bv440 32) (_ bv1 32) ) (_ bv1 32) ) )) 
(assert (bvsle (bvadd (bvmul (bvsub (_ bv0 32) (bvsdiv (_ bv9 32) (_ bv1 32) )) x_0 )(bvmul (bvsdiv (_ bv60 32) (_ bv1 32) ) x_1 )(bvmul (bvsub (_ bv0 32) (bvsdiv (_ bv270 32) (_ bv1 32) )) x_2 )(bvmul (bvsub (_ bv0 32) (bvsdiv (_ bv3 32) (_ bv1 32) )) x_3 )(bvmul (bvsdiv (_ bv80 32) (_ bv1 32) ) x_4 )) (bvmul (bvsdiv (_ bv896 32) (_ bv1 32) ) (_ bv1 32) ) )) 
(assert (bvsle (bvadd (bvmul (bvsdiv (_ bv3 32) (_ bv1 32) ) x_0 )(bvmul (bvsdiv (_ bv108 32) (_ bv1 32) ) x_1 )(bvmul (bvsub (_ bv0 32) (bvsdiv (_ bv2 32) (_ bv1 32) )) x_3 )) (bvmul (bvsub (_ bv0 32) (bvsdiv (_ bv401 32) (_ bv1 32) )) (_ bv1 32) ) )) 
(assert (bvsle (bvadd (bvmul (bvsub (_ bv0 32) (bvsdiv (_ bv25 32) (_ bv1 32) )) x_0 )(bvmul (bvsdiv (_ bv5 32) (_ bv1 32) ) x_2 )(bvmul (bvsub (_ bv0 32) (bvsdiv (_ bv8 32) (_ bv1 32) )) x_4 )) (bvmul (bvsdiv (_ bv255 32) (_ bv1 32) ) (_ bv1 32) ) )) 
(assert (bvsle (bvadd (bvmul (bvsdiv (_ bv60 32) (_ bv1 32) ) x_1 )(bvmul (bvsub (_ bv0 32) (bvsdiv (_ bv16 32) (_ bv1 32) )) x_2 )(bvmul (bvsub (_ bv0 32) (bvsdiv (_ bv25 32) (_ bv1 32) )) x_3 )) (bvmul (bvsub (_ bv0 32) (bvsdiv (_ bv31 32) (_ bv1 32) )) (_ bv1 32) ) )) 
(assert (bvsle (bvadd (bvmul (bvsub (_ bv0 32) (bvsdiv (_ bv3 32) (_ bv1 32) )) x_0 )(bvmul (bvsdiv (_ bv10 32) (_ bv1 32) ) x_2 )) (bvmul (bvsub (_ bv0 32) (bvsdiv (_ bv3 32) (_ bv1 32) )) (_ bv1 32) ) )) 
(assert (bvsle (bvadd (bvmul (bvsdiv (_ bv4 32) (_ bv1 32) ) x_3 )(bvmul (bvsub (_ bv0 32) (bvsdiv (_ bv5 32) (_ bv1 32) )) x_4 )) (bvmul (bvsdiv (_ bv11 32) (_ bv1 32) ) (_ bv1 32) ) )) 
(assert (bvsle (bvadd (bvmul (bvsdiv (_ bv200 32) (_ bv1 32) ) x_0 )(bvmul (bvsub (_ bv0 32) (bvsdiv (_ bv225 32) (_ bv1 32) )) x_1 )(bvmul (bvsub (_ bv0 32) (bvsdiv (_ bv135 32) (_ bv1 32) )) x_2 )(bvmul (bvsdiv (_ bv288 32) (_ bv1 32) ) x_3 )) (bvmul (bvsub (_ bv0 32) (bvsdiv (_ bv1215 32) (_ bv1 32) )) (_ bv1 32) ) )) 
(assert (bvsle (bvadd (bvmul (bvsdiv (_ bv25 32) (_ bv1 32) ) x_0 )(bvmul (bvsub (_ bv0 32) (bvsdiv (_ bv15 32) (_ bv1 32) )) x_1 )(bvmul (bvsub (_ bv0 32) (bvsdiv (_ bv5 32) (_ bv1 32) )) x_2 )(bvmul (bvsdiv (_ bv6 32) (_ bv1 32) ) x_3 )(bvmul (bvsub (_ bv0 32) (bvsdiv (_ bv10 32) (_ bv1 32) )) x_4 )) (bvmul (bvsdiv (_ bv40 32) (_ bv1 32) ) (_ bv1 32) ) )) 
(assert (bvsle (bvadd (bvmul (bvsub (_ bv0 32) (bvsdiv (_ bv20 32) (_ bv1 32) )) x_0 )(bvmul (bvsdiv (_ bv12 32) (_ bv1 32) ) x_1 )(bvmul (bvsdiv (_ bv3 32) (_ bv1 32) ) x_3 )(bvmul (bvsdiv (_ bv15 32) (_ bv1 32) ) x_4 )) (bvmul (bvsdiv (_ bv66 32) (_ bv1 32) ) (_ bv1 32) ) )) 
(assert (bvsle (bvadd (bvmul (bvsdiv (_ bv105 32) (_ bv1 32) ) x_0 )(bvmul (bvsub (_ bv0 32) (bvsdiv (_ bv49 32) (_ bv1 32) )) x_1 )(bvmul (bvsdiv (_ bv105 32) (_ bv1 32) ) x_2 )(bvmul (bvsdiv (_ bv50 32) (_ bv1 32) ) x_4 )) (bvmul (bvsub (_ bv0 32) (bvsdiv (_ bv530 32) (_ bv1 32) )) (_ bv1 32) ) )) 
(assert (bvsle (bvadd (bvmul (bvsdiv (_ bv7 32) (_ bv1 32) ) x_0 )(bvmul (bvsub (_ bv0 32) (bvsdiv (_ bv7 32) (_ bv1 32) )) x_1 )(bvmul (bvsdiv (_ bv10 32) (_ bv1 32) ) x_4 )) (bvmul (bvsdiv (_ bv13 32) (_ bv1 32) ) (_ bv1 32) ) )) 
(assert (bvsle (bvadd (bvmul (bvsub (_ bv0 32) (bvsdiv (_ bv210 32) (_ bv1 32) )) x_0 )(bvmul (bvsub (_ bv0 32) (bvsdiv (_ bv90 32) (_ bv1 32) )) x_1 )(bvmul (bvsdiv (_ bv35 32) (_ bv1 32) ) x_4 )) (bvmul (bvsdiv (_ bv2606 32) (_ bv1 32) ) (_ bv1 32) ) )) 
(assert (bvsle (bvadd (bvmul (bvsdiv (_ bv108 32) (_ bv1 32) ) x_0 )(bvmul (bvsdiv (_ bv420 32) (_ bv1 32) ) x_1 )(bvmul (bvsub (_ bv0 32) (bvsdiv (_ bv160 32) (_ bv1 32) )) x_2 )(bvmul (bvsub (_ bv0 32) (bvsdiv (_ bv45 32) (_ bv1 32) )) x_3 )(bvmul (bvsdiv (_ bv288 32) (_ bv1 32) ) x_4 )) (bvmul (bvsub (_ bv0 32) (bvsdiv (_ bv767 32) (_ bv1 32) )) (_ bv1 32) ) )) 
(assert (bvsle (bvadd (bvmul (bvsub (_ bv0 32) (bvsdiv (_ bv6 32) (_ bv1 32) )) x_1 )(bvmul (bvsdiv (_ bv12 32) (_ bv1 32) ) x_2 )(bvmul (bvsdiv (_ bv7 32) (_ bv1 32) ) x_3 )(bvmul (bvsdiv (_ bv9 32) (_ bv1 32) ) x_4 )) (bvmul (bvsub (_ bv0 32) (bvsdiv (_ bv74 32) (_ bv1 32) )) (_ bv1 32) ) )) 
(assert (bvsle (bvadd (bvmul (bvsub (_ bv0 32) (bvsdiv (_ bv35 32) (_ bv1 32) )) x_0 )(bvmul (bvsdiv (_ bv15 32) (_ bv1 32) ) x_4 )) (bvmul (bvsdiv (_ bv344 32) (_ bv1 32) ) (_ bv1 32) ) )) 
(assert (bvsle (bvadd (bvmul (bvsub (_ bv0 32) (bvsdiv (_ bv140 32) (_ bv1 32) )) x_0 )(bvmul (bvsub (_ bv0 32) (bvsdiv (_ bv140 32) (_ bv1 32) )) x_1 )(bvmul (bvsdiv (_ bv1344 32) (_ bv1 32) ) x_2 )(bvmul (bvsdiv (_ bv216 32) (_ bv1 32) ) x_3 )(bvmul (bvsdiv (_ bv63 32) (_ bv1 32) ) x_4 )) (bvmul (bvsub (_ bv0 32) (bvsdiv (_ bv2627 32) (_ bv1 32) )) (_ bv1 32) ) )) 

(check-sat)
(exit)